[2026-03-24T00:34:22.959Z] Pipeline "set_set_set_s008_g007" → 2026_03_24_00_34_22_set_set_set_s008_g007_max.sol
Set parameter WLSAccessID
Set parameter WLSSecret
Set parameter LicenseID to value 2792458
Set parameter LogFile to value "gurobi.log"
Using license file /root/gurobi.lic
Academic license 2792458 - for non-commercial use only - registered to an___@studenti.unipg.it

Gurobi Optimizer version 13.0.1 build v13.0.1rc0 (linux64 - "Ubuntu 24.04.4 LTS")
Copyright (c) 2026, Gurobi Optimization, LLC

Warning: Duplicate section found (read 'binary') - Is a variable name equal to an LP file format keyword?
Warning: Duplicate section found (read 'binary') - Is a variable name equal to an LP file format keyword?
Warning: Duplicate section found (read 'binary') - Is a variable name equal to an LP file format keyword?
Warning: Duplicate section found (read 'binary') - Is a variable name equal to an LP file format keyword?
Warning: Duplicate section found (read 'binary') - Is a variable name equal to an LP file format keyword?
Warning: Duplicate section found (read 'binary') - Is a variable name equal to an LP file format keyword?
Warning: Duplicate section found (read 'binary') - Is a variable name equal to an LP file format keyword?
Warning: Duplicate section found (read 'binary') - Is a variable name equal to an LP file format keyword?
Warning: Duplicate section found (read 'binary') - Is a variable name equal to an LP file format keyword?
Warning: Duplicate section found (read 'binary') - Is a variable name equal to an LP file format keyword?
Warning: Further warnings of this type will be omitted.
Read LP format model from file /root/bgw/data/uploads/2026_03_24_00_34_22_set_set_set_s008_g007_max.lp
Reading time = 0.00 seconds
: 908 rows, 157 columns, 2556 nonzeros

Using Gurobi shared library /opt/gurobi1301/linux64/lib/libgurobi.so.13.0.1

CPU model: AMD EPYC-Genoa Processor, instruction set [SSE2|AVX|AVX2|AVX512]
Thread count: 16 physical cores, 16 logical processors, using up to 16 threads

Academic license 2792458 - for non-commercial use only - registered to an___@studenti.unipg.it
Optimize a model with 908 rows, 157 columns and 2556 nonzeros (Max)
Model fingerprint: 0x23af7106
Model has 11 linear objective coefficients
Variable types: 24 continuous, 133 integer (133 binary)
Coefficient statistics:
  Matrix range     [1e+00, 1e+01]
  Objective range  [1e+00, 1e+00]
  Bounds range     [1e+00, 1e+00]
  RHS range        [1e+00, 2e+01]

Found heuristic solution: objective 11.0000000
Presolve removed 290 rows and 51 columns
Presolve time: 0.00s
Presolved: 618 rows, 106 columns, 1954 nonzeros
Variable types: 0 continuous, 106 integer (96 binary)
Found heuristic solution: objective 16.0000000

Root relaxation: objective 4.700000e+01, 93 iterations, 0.00 seconds (0.00 work units)

    Nodes    |    Current Node    |     Objective Bounds      |     Work
 Expl Unexpl |  Obj  Depth IntInf | Incumbent    BestBd   Gap | It/Node Time

     0     0   47.00000    0   52   16.00000   47.00000   194%     -    0s
H    0     0                      17.0000000   47.00000   176%     -    0s
H    0     0                      20.0000000   47.00000   135%     -    0s
H    0     0                      22.0000000   47.00000   114%     -    0s
     0     0   47.00000    0   54   22.00000   47.00000   114%     -    0s
     0     0   47.00000    0   54   22.00000   47.00000   114%     -    0s
H    0     0                      24.0000000   47.00000  95.8%     -    0s
H    0     0                      25.0000000   47.00000  88.0%     -    0s
     0     0   47.00000    0   47   25.00000   47.00000  88.0%     -    0s
     0     0   47.00000    0   47   25.00000   47.00000  88.0%     -    0s
H    0     0                      26.0000000   47.00000  80.8%     -    0s
     0     0   47.00000    0   45   26.00000   47.00000  80.8%     -    0s
H    0     0                      28.0000000   47.00000  67.9%     -    0s
     0     0   47.00000    0   53   28.00000   47.00000  67.9%     -    0s
     0     0   47.00000    0   41   28.00000   47.00000  67.9%     -    0s
     0     0   47.00000    0   49   28.00000   47.00000  67.9%     -    0s
     0     0   47.00000    0   49   28.00000   47.00000  67.9%     -    0s
     0     0   47.00000    0   52   28.00000   47.00000  67.9%     -    0s
     0     0   47.00000    0   49   28.00000   47.00000  67.9%     -    0s
     0     0   47.00000    0   50   28.00000   47.00000  67.9%     -    0s
     0     0   47.00000    0   50   28.00000   47.00000  67.9%     -    0s
     0     0   47.00000    0   50   28.00000   47.00000  67.9%     -    0s
     0     0   47.00000    0   50   28.00000   47.00000  67.9%     -    0s
     0     0   47.00000    0   48   28.00000   47.00000  67.9%     -    0s
     0     2   47.00000    0   48   28.00000   47.00000  67.9%     -    0s

Cutting planes:
  Inf proof: 4

Explored 11635 nodes (335753 simplex iterations) in 1.16 seconds (1.47 work units)
Thread count was 16 (of 16 available processors)

Solution count 9: 28 26 25 ... 11

Optimal solution found (tolerance 1.00e-04)
Best objective 2.800000000000e+01, best bound 2.800000000000e+01, gap 0.0000%

Wrote result file '/root/bgw/data/results/2026_03_24_00_34_22_set_set_set_s008_g007_max.sol'

